NAME : X-n376-k94
COMMENT : "Generated by Uchoa, Pecin, Pessoa, Poggi, Subramanian, and Vidal (2013)"
TYPE : CVRP
DIMENSION : 376
EDGE_WEIGHT_TYPE : EUC_2D
CAPACITY : 4
NODE_COORD_SECTION
1 0 0
2 989 944
3 5 730
4 769 200
5 698 515
6 72 561
7 52 397
8 839 271
9 140 724
10 339 580
11 30 850
12 820 815
13 555 844
14 388 709
15 323 438
16 159 983
17 989 233
18 644 167
19 766 151
20 387 690
21 193 140
22 863 192
23 149 123
24 609 119
25 121 204
26 625 537
27 716 123
28 8 219
29 429 956
30 844 970
31 661 66
32 347 202
33 979 314
34 255 772
35 634 504
36 466 48
37 330 90
38 929 245
39 236 130
40 785 0
41 251 486
42 758 203
43 524 280
44 798 71
45 212 595
46 967 478
47 504 429
48 581 534
49 883 899
50 605 414
51 640 692
52 287 432
53 641 771
54 53 374
55 344 325
56 647 72
57 63 976
58 519 235
59 485 226
60 469 527
61 433 168
62 538 891
63 884 433
64 142 134
65 234 394
66 473 750
67 815 622
68 130 999
69 655 588
70 16 235
71 503 614
72 477 489
73 87 78
74 689 289
75 631 868
76 304 743
77 624 81
78 338 865
79 831 984
80 312 157
81 563 205
82 641 435
83 189 201
84 277 903
85 906 949
86 601 486
87 746 904
88 557 409
89 854 201
90 50 20
91 994 111
92 584 875
93 316 741
94 150 56
95 377 988
96 371 762
97 401 741
98 890 126
99 797 335
100 9 301
101 923 259
102 586 782
103 103 99
104 166 987
105 896 750
106 383 86
107 603 863
108 590 78
109 40 554
110 755 120
111 554 351
112 603 102
113 279 404
114 1 481
115 667 931
116 609 350
117 237 925
118 755 779
119 607 107
120 589 379
121 744 130
122 469 142
123 491 28
124 602 512
125 329 925
126 933 714
127 391 982
128 285 336
129 730 604
130 758 153
131 831 894
132 355 206
133 382 353
134 887 133
135 286 835
136 103 743
137 929 750
138 89 845
139 689 515
140 903 330
141 713 261
142 465 494
143 922 783
144 703 619
145 282 745
146 939 801
147 320 130
148 531 25
149 887 949
150 765 502
151 174 187
152 993 233
153 982 13
154 25 851
155 228 228
156 774 690
157 722 969
158 133 115
159 175 663
160 134 106
161 469 233
162 325 78
163 166 547
164 416 965
165 284 119
166 169 541
167 302 72
168 537 7
169 434 329
170 59 816
171 139 74
172 495 746
173 890 453
174 719 235
175 184 528
176 863 957
177 821 476
178 700 645
179 400 49
180 293 179
181 104 271
182 882 906
183 701 394
184 18 221
185 819 101
186 971 397
187 454 960
188 348 657
189 745 122
190 3 510
191 981 283
192 167 323
193 869 880
194 844 154
195 53 544
196 443 825
197 879 809
198 683 254
199 402 59
200 719 31
201 664 737
202 541 249
203 204 791
204 615 578
205 821 381
206 767 595
207 594 837
208 331 365
209 145 850
210 537 263
211 157 938
212 147 59
213 138 140
214 354 240
215 435 976
216 917 593
217 504 643
218 552 29
219 420 473
220 576 665
221 648 637
222 792 147
223 55 92
224 635 236
225 180 793
226 561 629
227 743 136
228 686 38
229 415 672
230 678 523
231 834 48
232 897 63
233 868 224
234 786 394
235 132 915
236 513 74
237 757 295
238 859 823
239 398 959
240 360 94
241 506 114
242 699 907
243 842 46
244 341 918
245 240 808
246 434 756
247 628 184
248 938 599
249 287 889
250 22 999
251 374 19
252 707 963
253 681 762
254 750 278
255 652 340
256 788 95
257 653 222
258 730 753
259 484 573
260 395 854
261 144 957
262 404 597
263 849 288
264 321 355
265 294 41
266 43 501
267 175 695
268 439 486
269 949 443
270 245 169
271 848 143
272 198 396
273 153 521
274 436 824
275 703 624
276 126 2
277 659 523
278 370 702
279 528 268
280 330 488
281 420 88
282 630 555
283 568 848
284 992 800
285 92 747
286 126 152
287 18 275
288 875 151
289 537 418
290 598 777
291 527 104
292 819 522
293 316 915
294 112 727
295 697 29
296 243 155
297 195 437
298 563 820
299 583 383
300 645 62
301 645 77
302 174 884
303 193 643
304 96 519
305 336 319
306 998 266
307 990 922
308 753 566
309 646 537
310 412 328
311 386 478
312 344 512
313 151 492
314 625 949
315 251 208
316 680 428
317 135 843
318 171 19
319 405 150
320 146 654
321 82 631
322 417 950
323 121 982
324 209 292
325 180 796
326 51 162
327 628 521
328 913 714
329 820 662
330 596 600
331 605 229
332 378 53
333 95 447
334 899 216
335 685 705
336 304 713
337 305 760
338 636 482
339 954 189
340 470 857
341 450 97
342 811 886
343 453 64
344 230 919
345 732 350
346 258 429
347 674 351
348 20 95
349 57 298
350 136 129
351 62 213
352 852 852
353 538 110
354 435 522
355 518 452
356 816 415
357 987 849
358 472 154
359 893 13
360 579 281
361 418 966
362 391 92
363 490 482
364 890 711
365 552 802
366 667 416
367 571 581
368 71 227
369 311 90
370 598 723
371 845 677
372 528 124
373 321 456
374 817 624
375 978 276
376 239 960
PICKUP_AND_DELIVERY_SECTION
1 0 0 1000000000 0 0 0
2 0 0 1000000000 0 0.9545 0.0455
3 0 0 1000000000 0 0.00685 0.9932
4 0 0 1000000000 0 0.2601 0.7399
5 0 0 1000000000 0 0.7378 0.2622
6 0 0 1000000000 0 0.1283 0.8717
7 0 0 1000000000 0 0.131 0.869
8 0 0 1000000000 0 0.323 0.677
9 0 0 1000000000 0 0.1934 0.8066
10 0 0 1000000000 0 0.5845 0.4155
11 0 0 1000000000 0 0.03529 0.9647
12 0 0 1000000000 0 0.9939 0.0061
13 0 0 1000000000 0 0.6576 0.3424
14 0 0 1000000000 0 0.5472 0.4528
15 0 0 1000000000 0 0.7374 0.2626
16 0 0 1000000000 0 0.1617 0.8383
17 0 0 1000000000 0 0.2356 0.7644
18 0 0 1000000000 0 0.2593 0.7407
19 0 0 1000000000 0 0.1971 0.8029
20 0 0 1000000000 0 0.5609 0.4391
21 0 0 1000000000 0 0.7254 0.2746
22 0 0 1000000000 0 0.2225 0.7775
23 0 0 1000000000 0 0.8255 0.1745
24 0 0 1000000000 0 0.1954 0.8046
25 0 0 1000000000 0 0.5931 0.4069
26 0 0 1000000000 0 0.8592 0.1408
27 0 0 1000000000 0 0.1718 0.8282
28 0 0 1000000000 0 0.03653 0.9635
29 0 0 1000000000 0 0.4487 0.5513
30 0 0 1000000000 0 0.8701 0.1299
31 0 0 1000000000 0 0.09985 0.9002
32 0 0 1000000000 0 0.5821 0.4179
33 0 0 1000000000 0 0.3207 0.6793
34 0 0 1000000000 0 0.3303 0.6697
35 0 0 1000000000 0 0.795 0.205
36 0 0 1000000000 0 0.103 0.897
37 0 0 1000000000 0 0.2727 0.7273
38 0 0 1000000000 0 0.2637 0.7363
39 0 0 1000000000 0 0.5508 0.4492
40 0 0 1000000000 0 0 1
41 0 0 1000000000 0 0.5165 0.4835
42 0 0 1000000000 0 0.2678 0.7322
43 0 0 1000000000 0 0.5344 0.4656
44 0 0 1000000000 0 0.08897 0.911
45 0 0 1000000000 0 0.3563 0.6437
46 0 0 1000000000 0 0.4943 0.5057
47 0 0 1000000000 0 0.8512 0.1488
48 0 0 1000000000 0 0.9191 0.0809
49 0 0 1000000000 0 0.9822 0.0178
50 0 0 1000000000 0 0.6843 0.3157
51 0 0 1000000000 0 0.9249 0.07514
52 0 0 1000000000 0 0.6644 0.3356
53 0 0 1000000000 0 0.8314 0.1686
54 0 0 1000000000 0 0.1417 0.8583
55 0 0 1000000000 0 0.9448 0.05523
56 0 0 1000000000 0 0.1113 0.8887
57 0 0 1000000000 0 0.06455 0.9355
58 0 0 1000000000 0 0.4528 0.5472
59 0 0 1000000000 0 0.466 0.534
60 0 0 1000000000 0 0.8899 0.1101
61 0 0 1000000000 0 0.388 0.612
62 0 0 1000000000 0 0.6038 0.3962
63 0 0 1000000000 0 0.4898 0.5102
64 0 0 1000000000 0 0.9437 0.05634
65 0 0 1000000000 0 0.5939 0.4061
66 0 0 1000000000 0 0.6307 0.3693
67 0 0 1000000000 0 0.7632 0.2368
68 0 0 1000000000 0 0.1301 0.8699
69 0 0 1000000000 0 0.8977 0.1023
70 0 0 1000000000 0 0.06809 0.9319
71 0 0 1000000000 0 0.8192 0.1808
72 0 0 1000000000 0 0.9755 0.02454
73 0 0 1000000000 0 0.8966 0.1034
74 0 0 1000000000 0 0.4194 0.5806
75 0 0 1000000000 0 0.727 0.273
76 0 0 1000000000 0 0.4092 0.5908
77 0 0 1000000000 0 0.1298 0.8702
78 0 0 1000000000 0 0.3908 0.6092
79 0 0 1000000000 0 0.8445 0.1555
80 0 0 1000000000 0 0.5032 0.4968
81 0 0 1000000000 0 0.3641 0.6359
82 0 0 1000000000 0 0.6786 0.3214
83 0 0 1000000000 0 0.9403 0.0597
84 0 0 1000000000 0 0.3068 0.6932
85 0 0 1000000000 0 0.9547 0.04531
86 0 0 1000000000 0 0.8087 0.1913
87 0 0 1000000000 0 0.8252 0.1748
88 0 0 1000000000 0 0.7343 0.2657
89 0 0 1000000000 0 0.2354 0.7646
90 0 0 1000000000 0 0.4 0.6
91 0 0 1000000000 0 0.1117 0.8883
92 0 0 1000000000 0 0.6674 0.3326
93 0 0 1000000000 0 0.4265 0.5735
94 0 0 1000000000 0 0.3733 0.6267
95 0 0 1000000000 0 0.3816 0.6184
96 0 0 1000000000 0 0.4869 0.5131
97 0 0 1000000000 0 0.5412 0.4588
98 0 0 1000000000 0 0.1416 0.8584
99 0 0 1000000000 0 0.4203 0.5797
100 0 0 1000000000 0 0.0299 0.9701
101 0 0 1000000000 0 0.2806 0.7194
102 0 0 1000000000 0 0.7494 0.2506
103 0 0 1000000000 0 0.9612 0.03883
104 0 0 1000000000 0 0.1682 0.8318
105 0 0 1000000000 0 0.8371 0.1629
106 0 0 1000000000 0 0.2245 0.7755
107 0 0 1000000000 0 0.6987 0.3013
108 0 0 1000000000 0 0.1322 0.8678
109 0 0 1000000000 0 0.0722 0.9278
110 0 0 1000000000 0 0.1589 0.8411
111 0 0 1000000000 0 0.6336 0.3664
112 0 0 1000000000 0 0.1692 0.8308
113 0 0 1000000000 0 0.6906 0.3094
114 0 0 1000000000 0 0.00208 0.9979
115 0 0 1000000000 0 0.7164 0.2836
116 0 0 1000000000 0 0.5747 0.4253
117 0 0 1000000000 0 0.2562 0.7438
118 0 0 1000000000 0 0.9692 0.03081
119 0 0 1000000000 0 0.1763 0.8237
120 0 0 1000000000 0 0.6435 0.3565
121 0 0 1000000000 0 0.1747 0.8253
122 0 0 1000000000 0 0.3028 0.6972
123 0 0 1000000000 0 0.05703 0.943
124 0 0 1000000000 0 0.8505 0.1495
125 0 0 1000000000 0 0.3557 0.6443
126 0 0 1000000000 0 0.7653 0.2347
127 0 0 1000000000 0 0.3982 0.6018
128 0 0 1000000000 0 0.8482 0.1518
129 0 0 1000000000 0 0.8274 0.1726
130 0 0 1000000000 0 0.2018 0.7982
131 0 0 1000000000 0 0.9295 0.07047
132 0 0 1000000000 0 0.5803 0.4197
133 0 0 1000000000 0 0.9241 0.07592
134 0 0 1000000000 0 0.1499 0.8501
135 0 0 1000000000 0 0.3425 0.6575
136 0 0 1000000000 0 0.1386 0.8614
137 0 0 1000000000 0 0.8073 0.1927
138 0 0 1000000000 0 0.1053 0.8947
139 0 0 1000000000 0 0.7475 0.2525
140 0 0 1000000000 0 0.3654 0.6346
141 0 0 1000000000 0 0.3661 0.6339
142 0 0 1000000000 0 0.9413 0.0587
143 0 0 1000000000 0 0.8492 0.1508
144 0 0 1000000000 0 0.8805 0.1195
145 0 0 1000000000 0 0.3785 0.6215
146 0 0 1000000000 0 0.853 0.147
147 0 0 1000000000 0 0.4062 0.5938
148 0 0 1000000000 0 0.04708 0.9529
149 0 0 1000000000 0 0.9347 0.06533
150 0 0 1000000000 0 0.6562 0.3438
151 0 0 1000000000 0 0.9305 0.06952
152 0 0 1000000000 0 0.2346 0.7654
153 0 0 1000000000 0 0.01324 0.9868
154 0 0 1000000000 0 0.02938 0.9706
155 0 0 1000000000 0 1 0
156 0 0 1000000000 0 0.8915 0.1085
157 0 0 1000000000 0 0.7451 0.2549
158 0 0 1000000000 0 0.8647 0.1353
159 0 0 1000000000 0 0.264 0.736
160 0 0 1000000000 0 0.791 0.209
161 0 0 1000000000 0 0.4968 0.5032
162 0 0 1000000000 0 0.24 0.76
163 0 0 1000000000 0 0.3035 0.6965
164 0 0 1000000000 0 0.4311 0.5689
165 0 0 1000000000 0 0.419 0.581
166 0 0 1000000000 0 0.3124 0.6876
167 0 0 1000000000 0 0.2384 0.7616
168 0 0 1000000000 0 0.01304 0.987
169 0 0 1000000000 0 0.7581 0.2419
170 0 0 1000000000 0 0.0723 0.9277
171 0 0 1000000000 0 0.5324 0.4676
172 0 0 1000000000 0 0.6635 0.3365
173 0 0 1000000000 0 0.509 0.491
174 0 0 1000000000 0 0.3268 0.6732
175 0 0 1000000000 0 0.3485 0.6515
176 0 0 1000000000 0 0.9018 0.09822
177 0 0 1000000000 0 0.5798 0.4202
178 0 0 1000000000 0 0.9214 0.07857
179 0 0 1000000000 0 0.1225 0.8775
180 0 0 1000000000 0 0.6109 0.3891
181 0 0 1000000000 0 0.3838 0.6162
182 0 0 1000000000 0 0.9735 0.02649
183 0 0 1000000000 0 0.5621 0.4379
184 0 0 1000000000 0 0.08145 0.9186
185 0 0 1000000000 0 0.1233 0.8767
186 0 0 1000000000 0 0.4089 0.5911
187 0 0 1000000000 0 0.4729 0.5271
188 0 0 1000000000 0 0.5297 0.4703
189 0 0 1000000000 0 0.1638 0.8362
190 0 0 1000000000 0 0.00588 0.9941
191 0 0 1000000000 0 0.2885 0.7115
192 0 0 1000000000 0 0.517 0.483
193 0 0 1000000000 0 0.9875 0.0125
194 0 0 1000000000 0 0.1825 0.8175
195 0 0 1000000000 0 0.09743 0.9026
196 0 0 1000000000 0 0.537 0.463
197 0 0 1000000000 0 0.9204 0.07964
198 0 0 1000000000 0 0.3719 0.6281
199 0 0 1000000000 0 0.1468 0.8532
200 0 0 1000000000 0 0.04312 0.9569
201 0 0 1000000000 0 0.9009 0.09905
202 0 0 1000000000 0 0.4603 0.5397
203 0 0 1000000000 0 0.2579 0.7421
204 0 0 1000000000 0 0.9398 0.06016
205 0 0 1000000000 0 0.4641 0.5359
206 0 0 1000000000 0 0.7757 0.2243
207 0 0 1000000000 0 0.7097 0.2903
208 0 0 1000000000 0 0.9068 0.09315
209 0 0 1000000000 0 0.1706 0.8294
210 0 0 1000000000 0 0.4898 0.5102
211 0 0 1000000000 0 0.1674 0.8326
212 0 0 1000000000 0 0.4014 0.5986
213 0 0 1000000000 0 0.9857 0.01429
214 0 0 1000000000 0 0.678 0.322
215 0 0 1000000000 0 0.4457 0.5543
216 0 0 1000000000 0 0.6467 0.3533
217 0 0 1000000000 0 0.7838 0.2162
218 0 0 1000000000 0 0.05254 0.9475
219 0 0 1000000000 0 0.8879 0.1121
220 0 0 1000000000 0 0.8662 0.1338
221 0 0 1000000000 0 0.983 0.01698
222 0 0 1000000000 0 0.1856 0.8144
223 0 0 1000000000 0 0.5978 0.4022
224 0 0 1000000000 0 0.3717 0.6283
225 0 0 1000000000 0 0.227 0.773
226 0 0 1000000000 0 0.8919 0.1081
227 0 0 1000000000 0 0.183 0.817
228 0 0 1000000000 0 0.05539 0.9446
229 0 0 1000000000 0 0.6176 0.3824
230 0 0 1000000000 0 0.7714 0.2286
231 0 0 1000000000 0 0.05755 0.9424
232 0 0 1000000000 0 0.07023 0.9298
233 0 0 1000000000 0 0.2581 0.7419
234 0 0 1000000000 0 0.5013 0.4987
235 0 0 1000000000 0 0.1443 0.8557
236 0 0 1000000000 0 0.1442 0.8558
237 0 0 1000000000 0 0.3897 0.6103
238 0 0 1000000000 0 0.9581 0.04191
239 0 0 1000000000 0 0.415 0.585
240 0 0 1000000000 0 0.2611 0.7389
241 0 0 1000000000 0 0.2253 0.7747
242 0 0 1000000000 0 0.7707 0.2293
243 0 0 1000000000 0 0.05463 0.9454
244 0 0 1000000000 0 0.3715 0.6285
245 0 0 1000000000 0 0.297 0.703
246 0 0 1000000000 0 0.5741 0.4259
247 0 0 1000000000 0 0.293 0.707
248 0 0 1000000000 0 0.6386 0.3614
249 0 0 1000000000 0 0.3228 0.6772
250 0 0 1000000000 0 0.02202 0.978
251 0 0 1000000000 0 0.0508 0.9492
252 0 0 1000000000 0 0.7342 0.2658
253 0 0 1000000000 0 0.8937 0.1063
254 0 0 1000000000 0 0.3707 0.6293
255 0 0 1000000000 0 0.5215 0.4785
256 0 0 1000000000 0 0.1206 0.8794
257 0 0 1000000000 0 0.34 0.66
258 0 0 1000000000 0 0.9695 0.03054
259 0 0 1000000000 0 0.8447 0.1553
260 0 0 1000000000 0 0.4625 0.5375
261 0 0 1000000000 0 0.1505 0.8495
262 0 0 1000000000 0 0.6767 0.3233
263 0 0 1000000000 0 0.3392 0.6608
264 0 0 1000000000 0 0.9042 0.09577
265 0 0 1000000000 0 0.1395 0.8605
266 0 0 1000000000 0 0.08583 0.9142
267 0 0 1000000000 0 0.2518 0.7482
268 0 0 1000000000 0 0.9033 0.09671
269 0 0 1000000000 0 0.4668 0.5332
270 0 0 1000000000 0 0.6898 0.3102
271 0 0 1000000000 0 0.1686 0.8314
272 0 0 1000000000 0 0.5 0.5
273 0 0 1000000000 0 0.2937 0.7063
274 0 0 1000000000 0 0.5291 0.4709
275 0 0 1000000000 0 0.8876 0.1124
276 0 0 1000000000 0 0.01587 0.9841
277 0 0 1000000000 0 0.7936 0.2064
278 0 0 1000000000 0 0.5271 0.4729
279 0 0 1000000000 0 0.5076 0.4924
280 0 0 1000000000 0 0.6762 0.3238
281 0 0 1000000000 0 0.2095 0.7905
282 0 0 1000000000 0 0.881 0.119
283 0 0 1000000000 0 0.6698 0.3302
284 0 0 1000000000 0 0.8065 0.1935
285 0 0 1000000000 0 0.1232 0.8768
286 0 0 1000000000 0 0.8289 0.1711
287 0 0 1000000000 0 0.06545 0.9345
288 0 0 1000000000 0 0.1726 0.8274
289 0 0 1000000000 0 0.7784 0.2216
290 0 0 1000000000 0 0.7696 0.2304
291 0 0 1000000000 0 0.1973 0.8027
292 0 0 1000000000 0 0.6374 0.3626
293 0 0 1000000000 0 0.3454 0.6546
294 0 0 1000000000 0 0.1541 0.8459
295 0 0 1000000000 0 0.04161 0.9584
296 0 0 1000000000 0 0.6379 0.3621
297 0 0 1000000000 0 0.4462 0.5538
298 0 0 1000000000 0 0.6866 0.3134
299 0 0 1000000000 0 0.6569 0.3431
300 0 0 1000000000 0 0.09612 0.9039
301 0 0 1000000000 0 0.1194 0.8806
302 0 0 1000000000 0 0.1968 0.8032
303 0 0 1000000000 0 0.3002 0.6998
304 0 0 1000000000 0 0.185 0.815
305 0 0 1000000000 0 0.9494 0.0506
306 0 0 1000000000 0 0.2665 0.7335
307 0 0 1000000000 0 0.9313 0.06869
308 0 0 1000000000 0 0.7517 0.2483
309 0 0 1000000000 0 0.8313 0.1687
310 0 0 1000000000 0 0.7961 0.2039
311 0 0 1000000000 0 0.8075 0.1925
312 0 0 1000000000 0 0.6719 0.3281
313 0 0 1000000000 0 0.3069 0.6931
314 0 0 1000000000 0 0.6586 0.3414
315 0 0 1000000000 0 0.8287 0.1713
316 0 0 1000000000 0 0.6294 0.3706
317 0 0 1000000000 0 0.1601 0.8399
318 0 0 1000000000 0 0.1111 0.8889
319 0 0 1000000000 0 0.3704 0.6296
320 0 0 1000000000 0 0.2232 0.7768
321 0 0 1000000000 0 0.13 0.87
322 0 0 1000000000 0 0.4389 0.5611
323 0 0 1000000000 0 0.1232 0.8768
324 0 0 1000000000 0 0.7158 0.2842
325 0 0 1000000000 0 0.2261 0.7739
326 0 0 1000000000 0 0.3148 0.6852
327 0 0 1000000000 0 0.8296 0.1704
328 0 0 1000000000 0 0.782 0.218
329 0 0 1000000000 0 0.8073 0.1927
330 0 0 1000000000 0 0.9933 0.00667
331 0 0 1000000000 0 0.3785 0.6215
332 0 0 1000000000 0 0.1402 0.8598
333 0 0 1000000000 0 0.2125 0.7875
334 0 0 1000000000 0 0.2403 0.7597
335 0 0 1000000000 0 0.9716 0.02837
336 0 0 1000000000 0 0.4264 0.5736
337 0 0 1000000000 0 0.4013 0.5987
338 0 0 1000000000 0 0.7579 0.2421
339 0 0 1000000000 0 0.1981 0.8019
340 0 0 1000000000 0 0.5484 0.4516
341 0 0 1000000000 0 0.2156 0.7844
342 0 0 1000000000 0 0.9153 0.08465
343 0 0 1000000000 0 0.1413 0.8587
344 0 0 1000000000 0 0.2503 0.7497
345 0 0 1000000000 0 0.4781 0.5219
346 0 0 1000000000 0 0.6014 0.3986
347 0 0 1000000000 0 0.5208 0.4792
348 0 0 1000000000 0 0.2105 0.7895
349 0 0 1000000000 0 0.1913 0.8087
350 0 0 1000000000 0 0.9485 0.05147
351 0 0 1000000000 0 0.2911 0.7089
352 0 0 1000000000 0 1 0
353 0 0 1000000000 0 0.2045 0.7955
354 0 0 1000000000 0 0.8333 0.1667
355 0 0 1000000000 0 0.8726 0.1274
356 0 0 1000000000 0 0.5086 0.4914
357 0 0 1000000000 0 0.8602 0.1398
358 0 0 1000000000 0 0.3263 0.6737
359 0 0 1000000000 0 0.01456 0.9854
360 0 0 1000000000 0 0.4853 0.5147
361 0 0 1000000000 0 0.4327 0.5673
362 0 0 1000000000 0 0.2353 0.7647
363 0 0 1000000000 0 0.9837 0.01633
364 0 0 1000000000 0 0.7989 0.2011
365 0 0 1000000000 0 0.6883 0.3117
366 0 0 1000000000 0 0.6237 0.3763
367 0 0 1000000000 0 0.9828 0.01721
368 0 0 1000000000 0 0.3128 0.6872
369 0 0 1000000000 0 0.2894 0.7106
370 0 0 1000000000 0 0.8271 0.1729
371 0 0 1000000000 0 0.8012 0.1988
372 0 0 1000000000 0 0.2348 0.7652
373 0 0 1000000000 0 0.7039 0.2961
374 0 0 1000000000 0 0.7638 0.2362
375 0 0 1000000000 0 0.2822 0.7178
376 0 0 1000000000 0 0.249 0.751
